400, 42761
388, 388
198, 198
160, 160
10, 10
116, 116
272, 272
312, 312
90, 90
116, 116
166, 166
400, 400
180, 180
354, 354
398, 398
12, 12
202, 202
78, 78
344, 344
374, 374
236, 236
306, 306
382, 382
370, 370
400, 400
370, 370
234, 234
380, 380
116, 116
236, 236
386, 386
384, 384
178, 178
78, 78
240, 240
326, 326
136, 136
32, 32
140, 140
118, 118
396, 396
340, 340
136, 136
96, 96
268, 268
152, 152
110, 110
66, 66
214, 214
388, 388
252, 252
132, 132
116, 116
310, 310
192, 192
230, 230
190, 190
10, 10
290, 290
162, 162
146, 146
364, 364
298, 298
272, 272
306, 306
150, 150
178, 178
360, 360
80, 80
34, 34
372, 372
284, 284
288, 288
374, 374
230, 230
152, 152
152, 152
72, 72
190, 190
140, 140
48, 48
228, 228
220, 220
264, 264
326, 326
234, 234
258, 258
266, 266
194, 194
126, 126
68, 68
220, 220
246, 246
114, 114
114, 114
400, 400
142, 142
144, 144
384, 384
218, 218
360, 360
380, 380
270, 270
286, 286
204, 204
240, 240
368, 368
144, 144
364, 364
22, 22
94, 94
126, 126
24, 24
350, 350
28, 28
70, 70
360, 360
258, 258
326, 326
166, 166
220, 220
52, 52
8, 8
94, 94
290, 290
366, 366
108, 108
338, 338
122, 122
2, 2
304, 304
18, 18
352, 352
36, 36
174, 174
160, 160
338, 338
120, 120
380, 380
154, 154
362, 362
134, 134
278, 278
270, 270
356, 356
204, 204
236, 236
116, 116
240, 240
16, 16
146, 146
186, 186
310, 310
352, 352
334, 334
156, 156
284, 284
328, 328
80, 80
268, 268
30, 30
62, 62
276, 276
244, 244
286, 286
30, 30
230, 230
116, 116
358, 358
14, 14
46, 46
186, 186
248, 248
94, 94
312, 312
302, 302
70, 70
252, 252
228, 228
54, 54
302, 302
330, 330
40, 40
188, 188
254, 254
4, 4
238, 238
394, 394
230, 230
2, 2
354, 354
112, 112
58, 58
170, 170
160, 160
114, 114
390, 390
238, 238
396, 396
368, 368
252, 252
136, 136
138, 138
132, 132
232, 232
352, 352
264, 264
322, 322
198, 198
248, 248
24, 24
302, 302
42, 42
164, 164
158, 158
16, 16
396, 396
344, 344
392, 392
382, 382
134, 134
240, 240
194, 194
370, 370
228, 228
8, 8
90, 90
66, 66
364, 364
102, 102
276, 276
104, 104
122, 122
266, 266
212, 212
28, 28
288, 288
80, 80
282, 282
206, 206
292, 292
110, 110
234, 234
82, 82
52, 52
240, 240
168, 168
154, 154
370, 370
254, 254
370, 370
8, 8
78, 78
376, 376
54, 54
166, 166
32, 32
334, 334
390, 390
248, 248
308, 308
332, 332
32, 32
16, 16
320, 320
184, 184
112, 112
118, 118
210, 210
66, 66
66, 66
312, 312
230, 230
86, 86
142, 142
198, 198
308, 308
148, 148
72, 72
60, 60
244, 244
314, 314
192, 192
382, 382
356, 356
106, 106
116, 116
18, 18
162, 162
222, 222
20, 20
294, 294
68, 68
228, 228
214, 214
396, 396
88, 88
262, 262
354, 354
344, 344
164, 164
284, 284
276, 276
162, 162
64, 64
388, 388
218, 218
316, 316
218, 218
324, 324
372, 372
156, 156
38, 38
368, 368
6, 6
390, 390
154, 154
126, 126
110, 110
328, 328
380, 380
44, 44
78, 78
288, 288
396, 396
176, 176
362, 362
318, 318
256, 256
328, 328
380, 380
354, 354
186, 186
142, 142
102, 102
322, 322
164, 164
106, 106
368, 368
74, 74
270, 270
292, 292
304, 304
240, 240
62, 62
290, 290
166, 166
338, 338
310, 310
310, 310
246, 246
62, 62
324, 324
142, 142
82, 82
76, 76
274, 274
296, 296
382, 382
206, 206
32, 32
210, 210
246, 246
394, 394
356, 356
48, 48
170, 170
202, 202
298, 298
300, 300
4, 4
98, 98
320, 320
342, 342
174, 174
312, 312
302, 302
104, 104
88, 88
292, 292
250, 250
182, 182
20, 20
36, 36
350, 350
120, 120
264, 264
254, 254
364, 364
186, 186
344, 344
268, 268
394, 394
184, 184
272, 272
54, 54
220, 220
324, 324
274, 274
270, 270
338, 338
